
 param N:= 20;
 param M:= 20;

 param B_c := 40;

 param B_CPU := 7;

 param B_m := 42;

 param: w cpu m:= 
1 	 12	 1 	 10
2 	 6	 2 	 7
3 	 10	 2 	 16
4 	 1	 2 	 13
5 	 3	 3 	 14
6 	 10	 1 	 4
7 	 9	 1 	 3
8 	 6	 2 	 14
9 	 13	 1 	 9
10 	 11	 1 	 9
11 	 10	 3 	 7
12 	 10	 1 	 13
13 	 5	 1 	 3
14 	 13	 1 	 9
15 	 13	 1 	 12
16 	 10	 1 	 8
17 	 14	 3 	 13
18 	 7	 3 	 9
19 	 16	 1 	 7
20 	 3	 3 	 11
;